
ASes= { 1, 2, 3, 4, 5, 6, 7, 8, 9, 10, 11 } ;


Objects= { 1, 2, 3, 4, 5, 6, 7, 8, 9, 10, 11, 12, 13, 14, 15, 16, 17, 18, 19, 20, 21, 22, 23, 24, 25, 26, 27, 28, 29, 30, 31, 32, 33, 34, 35, 36, 37, 38, 39, 40, 41, 42, 43, 44, 45, 46, 47, 48, 49, 50, 51, 52, 53, 54, 55, 56, 57, 58, 59, 60, 61, 62, 63, 64, 65, 66, 67, 68, 69, 70, 71, 72, 73, 74, 75, 76, 77, 78, 79, 80, 81, 82, 83, 84, 85, 86, 87, 88, 89, 90, 91, 92, 93, 94, 95, 96, 97, 98, 99, 100 } ;


QualityLevels= { 0, 1, 2, 3, 4, 5 } ;

Arcs = {<2,1,490000>, <1,2,490000>, <11,1,490000>, <1,11,490000>, <11,2,490000>, <2,11,490000>, <11,10,490000>, <10,11,490000>, <3,2,490000>, <2,3,490000>, <4,3,490000>, <3,4,490000>, <5,4,490000>, <4,5,490000>, <6,5,490000>, <5,6,490000>, <7,6,490000>, <6,7,490000>, <8,4,490000>, <4,8,490000>, <8,7,490000>, <7,8,490000>, <9,3,490000>, <3,9,490000>, <9,8,490000>, <8,9,490000>, <10,9,490000>, <9,10,490000>};


RatePerQuality= [ 0  300  700  1500  2500  3500 ] ;


CacheSpacePerQuality= [ 10000  11.25  26.25  56.25  93.75  131.25 ] ;


UtilityPerQuality= [ 0  0.2  0.4  0.6  0.8  1 ] ;


ObjectsPublishedByProducers=[ [ 0  0  0  0  0  0  0  1  0  0  0 ]  [ 0  0  0  0  0  0  0  1  0  0  0 ]  [ 0  0  0  0  0  0  0  1  0  0  0 ]  [ 0  0  0  0  0  0  0  1  0  0  0 ]  [ 0  0  0  0  0  0  0  1  0  0  0 ]  [ 0  0  0  0  0  0  0  1  0  0  0 ]  [ 0  0  0  0  0  0  0  1  0  0  0 ]  [ 0  0  0  0  0  0  0  1  0  0  0 ]  [ 0  0  0  0  0  0  0  1  0  0  0 ]  [ 0  0  0  0  0  0  0  1  0  0  0 ]  [ 0  0  0  0  0  0  0  1  0  0  0 ]  [ 0  0  0  0  0  0  0  1  0  0  0 ]  [ 0  0  0  0  0  0  0  1  0  0  0 ]  [ 0  0  0  0  0  0  0  1  0  0  0 ]  [ 0  0  0  0  0  0  0  1  0  0  0 ]  [ 0  0  0  0  0  0  0  1  0  0  0 ]  [ 0  0  0  0  0  0  0  1  0  0  0 ]  [ 0  0  0  0  0  0  0  1  0  0  0 ]  [ 0  0  0  0  0  0  0  1  0  0  0 ]  [ 0  0  0  0  0  0  0  1  0  0  0 ]  [ 0  0  0  0  0  0  0  1  0  0  0 ]  [ 0  0  0  0  0  0  0  1  0  0  0 ]  [ 0  0  0  0  0  0  0  1  0  0  0 ]  [ 0  0  0  0  0  0  0  1  0  0  0 ]  [ 0  0  0  0  0  0  0  1  0  0  0 ]  [ 0  0  0  0  0  0  0  1  0  0  0 ]  [ 0  0  0  0  0  0  0  1  0  0  0 ]  [ 0  0  0  0  0  0  0  1  0  0  0 ]  [ 0  0  0  0  0  0  0  1  0  0  0 ]  [ 0  0  0  0  0  0  0  1  0  0  0 ]  [ 0  0  0  0  0  0  0  1  0  0  0 ]  [ 0  0  0  0  0  0  0  1  0  0  0 ]  [ 0  0  0  0  0  0  0  1  0  0  0 ]  [ 0  0  0  0  0  0  0  1  0  0  0 ]  [ 0  0  0  0  0  0  0  1  0  0  0 ]  [ 0  0  0  0  0  0  0  1  0  0  0 ]  [ 0  0  0  0  0  0  0  1  0  0  0 ]  [ 0  0  0  0  0  0  0  1  0  0  0 ]  [ 0  0  0  0  0  0  0  1  0  0  0 ]  [ 0  0  0  0  0  0  0  1  0  0  0 ]  [ 0  0  0  0  0  0  0  1  0  0  0 ]  [ 0  0  0  0  0  0  0  1  0  0  0 ]  [ 0  0  0  0  0  0  0  1  0  0  0 ]  [ 0  0  0  0  0  0  0  1  0  0  0 ]  [ 0  0  0  0  0  0  0  1  0  0  0 ]  [ 0  0  0  0  0  0  0  1  0  0  0 ]  [ 0  0  0  0  0  0  0  1  0  0  0 ]  [ 0  0  0  0  0  0  0  1  0  0  0 ]  [ 0  0  0  0  0  0  0  1  0  0  0 ]  [ 0  0  0  0  0  0  0  1  0  0  0 ]  [ 0  0  0  0  0  0  0  1  0  0  0 ]  [ 0  0  0  0  0  0  0  1  0  0  0 ]  [ 0  0  0  0  0  0  0  1  0  0  0 ]  [ 0  0  0  0  0  0  0  1  0  0  0 ]  [ 0  0  0  0  0  0  0  1  0  0  0 ]  [ 0  0  0  0  0  0  0  1  0  0  0 ]  [ 0  0  0  0  0  0  0  1  0  0  0 ]  [ 0  0  0  0  0  0  0  1  0  0  0 ]  [ 0  0  0  0  0  0  0  1  0  0  0 ]  [ 0  0  0  0  0  0  0  1  0  0  0 ]  [ 0  0  0  0  0  0  0  1  0  0  0 ]  [ 0  0  0  0  0  0  0  1  0  0  0 ]  [ 0  0  0  0  0  0  0  1  0  0  0 ]  [ 0  0  0  0  0  0  0  1  0  0  0 ]  [ 0  0  0  0  0  0  0  1  0  0  0 ]  [ 0  0  0  0  0  0  0  1  0  0  0 ]  [ 0  0  0  0  0  0  0  1  0  0  0 ]  [ 0  0  0  0  0  0  0  1  0  0  0 ]  [ 0  0  0  0  0  0  0  1  0  0  0 ]  [ 0  0  0  0  0  0  0  1  0  0  0 ]  [ 0  0  0  0  0  0  0  1  0  0  0 ]  [ 0  0  0  0  0  0  0  1  0  0  0 ]  [ 0  0  0  0  0  0  0  1  0  0  0 ]  [ 0  0  0  0  0  0  0  1  0  0  0 ]  [ 0  0  0  0  0  0  0  1  0  0  0 ]  [ 0  0  0  0  0  0  0  1  0  0  0 ]  [ 0  0  0  0  0  0  0  1  0  0  0 ]  [ 0  0  0  0  0  0  0  1  0  0  0 ]  [ 0  0  0  0  0  0  0  1  0  0  0 ]  [ 0  0  0  0  0  0  0  1  0  0  0 ]  [ 0  0  0  0  0  0  0  1  0  0  0 ]  [ 0  0  0  0  0  0  0  1  0  0  0 ]  [ 0  0  0  0  0  0  0  1  0  0  0 ]  [ 0  0  0  0  0  0  0  1  0  0  0 ]  [ 0  0  0  0  0  0  0  1  0  0  0 ]  [ 0  0  0  0  0  0  0  1  0  0  0 ]  [ 0  0  0  0  0  0  0  1  0  0  0 ]  [ 0  0  0  0  0  0  0  1  0  0  0 ]  [ 0  0  0  0  0  0  0  1  0  0  0 ]  [ 0  0  0  0  0  0  0  1  0  0  0 ]  [ 0  0  0  0  0  0  0  1  0  0  0 ]  [ 0  0  0  0  0  0  0  1  0  0  0 ]  [ 0  0  0  0  0  0  0  1  0  0  0 ]  [ 0  0  0  0  0  0  0  1  0  0  0 ]  [ 0  0  0  0  0  0  0  1  0  0  0 ]  [ 0  0  0  0  0  0  0  1  0  0  0 ]  [ 0  0  0  0  0  0  0  1  0  0  0 ]  [ 0  0  0  0  0  0  0  1  0  0  0 ]  [ 0  0  0  0  0  0  0  1  0  0  0 ]  [ 0  0  0  0  0  0  0  1  0  0  0 ] ];

ObjRequests = {  <1,5,42>, <2,5,407>, <3,5,5>, <4,5,76>, <5,5,79>, <6,5,17>, <7,5,63>, <8,5,13>, <9,5,20>, <10,5,56>, <11,5,88>, <12,5,6>, <13,5,24>, <14,5,68>, <15,5,60>, <16,5,7>, <17,5,8>, <18,5,91>, <19,5,17>, <20,5,9>, <21,5,35>, <22,5,63>, <23,5,32>, <24,5,29>, <25,5,12>, <26,5,26>, <27,5,5>, <28,5,5>, <29,5,18>, <30,5,39>, <31,5,35>, <32,5,5>, <33,5,32>, <34,5,8>, <35,5,29>, <36,5,4>, <37,5,9>, <38,5,21>, <40,5,34>, <41,5,13>, <43,5,15>, <44,5,19>, <45,5,5>, <46,5,14>, <47,5,13>, <48,5,21>, <49,5,34>, <51,5,4>, <52,5,10>, <53,5,7>, <54,5,3>, <55,5,1>, <56,5,3>, <57,5,14>, <58,5,6>, <59,5,7>, <60,5,3>, <61,5,1>, <62,5,2>, <63,5,9>, <64,5,1>, <65,5,2>, <66,5,8>, <67,5,7>, <68,5,6>, <69,5,7>, <70,5,4>, <72,5,4>, <73,5,8>, <74,5,3>, <75,5,2>, <77,5,6>, <78,5,3>, <79,5,3>, <80,5,7>, <81,5,4>, <82,5,2>, <83,5,3>, <84,5,9>, <85,5,1>, <86,5,3>, <87,5,4>, <88,5,4>, <89,5,1>, <91,5,3>, <92,5,4>, <93,5,3>, <94,5,5>, <95,5,3>, <96,5,2>, <97,5,17>, <98,5,6>, <99,5,2>, <100,5,5>, <1,6,48>, <2,6,86>, <3,6,64>, <4,6,57>, <5,6,245>, <6,6,73>, <7,6,149>, <8,6,5>, <9,6,6>, <10,6,18>, <11,6,29>, <12,6,15>, <13,6,28>, <14,6,62>, <16,6,89>, <17,6,83>, <18,6,17>, <19,6,27>, <20,6,36>, <21,6,24>, <22,6,7>, <23,6,16>, <24,6,54>, <25,6,12>, <26,6,51>, <27,6,46>, <28,6,6>, <29,6,2>, <30,6,2>, <31,6,1>, <32,6,21>, <33,6,15>, <34,6,34>, <35,6,21>, <36,6,26>, <37,6,11>, <38,6,26>, <39,6,20>, <40,6,3>, <41,6,2>, <42,6,11>, <43,6,6>, <44,6,4>, <45,6,15>, <46,6,16>, <47,6,18>, <48,6,7>, <49,6,6>, <50,6,2>, <51,6,24>, <53,6,12>, <54,6,25>, <55,6,9>, <56,6,9>, <57,6,1>, <58,6,11>, <59,6,21>, <60,6,4>, <61,6,3>, <62,6,13>, <63,6,2>, <64,6,2>, <65,6,4>, <66,6,3>, <67,6,18>, <68,6,6>, <69,6,6>, <70,6,1>, <71,6,6>, <73,6,2>, <74,6,7>, <75,6,1>, <76,6,1>, <77,6,8>, <78,6,2>, <79,6,1>, <80,6,1>, <81,6,2>, <82,6,18>, <83,6,1>, <84,6,4>, <85,6,18>, <86,6,4>, <87,6,5>, <88,6,9>, <89,6,3>, <90,6,6>, <91,6,6>, <92,6,8>, <93,6,5>, <94,6,3>, <95,6,5>, <96,6,6>, <97,6,2>, <98,6,4>, <100,6,1>, <1,7,682>, <2,7,159>, <3,7,164>, <4,7,3>, <5,7,128>, <6,7,85>, <7,7,21>, <8,7,43>, <9,7,75>, <10,7,2>, <11,7,32>, <12,7,75>, <13,7,6>, <15,7,74>, <16,7,34>, <17,7,28>, <18,7,3>, <19,7,14>, <20,7,8>, <21,7,8>, <22,7,16>, <23,7,2>, <24,7,10>, <25,7,10>, <26,7,3>, <27,7,2>, <28,7,24>, <29,7,29>, <30,7,11>, <31,7,11>, <32,7,26>, <33,7,3>, <34,7,1>, <35,7,5>, <36,7,2>, <37,7,3>, <39,7,8>, <40,7,5>, <41,7,30>, <42,7,14>, <43,7,20>, <45,7,3>, <46,7,22>, <47,7,17>, <48,7,5>, <49,7,1>, <50,7,4>, <51,7,7>, <52,7,20>, <53,7,10>, <54,7,7>, <55,7,28>, <56,7,8>, <57,7,3>, <58,7,13>, <59,7,1>, <60,7,15>, <61,7,6>, <62,7,4>, <64,7,23>, <65,7,7>, <66,7,2>, <67,7,4>, <69,7,13>, <70,7,14>, <71,7,11>, <72,7,8>, <73,7,4>, <75,7,6>, <76,7,13>, <77,7,5>, <78,7,1>, <79,7,4>, <80,7,4>, <81,7,18>, <82,7,4>, <83,7,13>, <84,7,7>, <85,7,2>, <86,7,7>, <88,7,7>, <89,7,14>, <90,7,14>, <91,7,1>, <92,7,2>, <93,7,2>, <94,7,8>, <95,7,4>, <96,7,14>, <97,7,2>, <98,7,9>, <99,7,19>, <100,7,6>, <1,1,1461>, <2,1,352>, <3,1,469>, <4,1,273>, <5,1,10>, <6,1,198>, <7,1,36>, <8,1,5>, <9,1,66>, <10,1,97>, <11,1,9>, <12,1,4>, <13,1,107>, <14,1,8>, <15,1,19>, <16,1,2>, <17,1,20>, <18,1,6>, <19,1,41>, <20,1,20>, <21,1,15>, <22,1,7>, <23,1,40>, <24,1,2>, <25,1,27>, <26,1,12>, <27,1,5>, <28,1,25>, <29,1,8>, <30,1,11>, <31,1,2>, <32,1,19>, <33,1,12>, <34,1,4>, <35,1,15>, <36,1,17>, <37,1,8>, <38,1,15>, <39,1,10>, <40,1,10>, <41,1,9>, <42,1,24>, <43,1,2>, <44,1,20>, <45,1,5>, <47,1,5>, <48,1,10>, <49,1,17>, <50,1,9>, <51,1,10>, <52,1,15>, <55,1,11>, <56,1,38>, <57,1,17>, <58,1,1>, <59,1,1>, <60,1,19>, <61,1,17>, <62,1,1>, <63,1,13>, <64,1,1>, <65,1,16>, <66,1,4>, <67,1,7>, <68,1,2>, <69,1,9>, <70,1,6>, <71,1,6>, <72,1,17>, <73,1,17>, <74,1,13>, <75,1,2>, <76,1,21>, <77,1,4>, <78,1,5>, <79,1,17>, <80,1,7>, <81,1,2>, <82,1,5>, <83,1,5>, <84,1,1>, <85,1,7>, <86,1,5>, <87,1,10>, <88,1,13>, <89,1,3>, <90,1,7>, <91,1,4>, <92,1,3>, <93,1,4>, <94,1,1>, <95,1,6>, <96,1,1>, <97,1,1>, <98,1,2>, <99,1,10>, <100,1,3>, <1,10,83>, <2,10,199>, <3,10,88>, <4,10,201>, <5,10,8>, <6,10,21>, <7,10,64>, <8,10,225>, <9,10,69>, <10,10,73>, <11,10,36>, <12,10,78>, <13,10,12>, <14,10,30>, <15,10,5>, <16,10,30>, <17,10,10>, <18,10,4>, <19,10,32>, <20,10,53>, <21,10,11>, <22,10,1>, <23,10,1>, <24,10,10>, <25,10,15>, <26,10,8>, <27,10,29>, <28,10,28>, <29,10,36>, <30,10,18>, <31,10,25>, <32,10,1>, <33,10,13>, <34,10,24>, <35,10,1>, <36,10,16>, <37,10,34>, <38,10,1>, <39,10,31>, <40,10,21>, <41,10,15>, <42,10,12>, <44,10,3>, <45,10,13>, <46,10,16>, <47,10,5>, <48,10,10>, <49,10,7>, <50,10,26>, <51,10,11>, <52,10,7>, <53,10,5>, <54,10,3>, <55,10,4>, <57,10,3>, <58,10,4>, <59,10,12>, <60,10,2>, <62,10,9>, <63,10,19>, <64,10,6>, <65,10,14>, <66,10,22>, <68,10,17>, <69,10,4>, <70,10,8>, <71,10,14>, <72,10,8>, <73,10,6>, <74,10,2>, <75,10,21>, <76,10,1>, <77,10,10>, <78,10,13>, <79,10,6>, <80,10,2>, <81,10,1>, <82,10,3>, <83,10,12>, <84,10,4>, <85,10,1>, <86,10,3>, <87,10,6>, <89,10,3>, <90,10,6>, <91,10,7>, <92,10,6>, <93,10,6>, <94,10,10>, <95,10,7>, <97,10,4>, <98,10,3>, <99,10,1>, <100,10,11> };

MaxCacheStorageAtSingleAS= [ 131.25  131.25  131.25  131.25  131.25  131.25  131.25  131.25  131.25  131.25  131.25 ] ;

MaxCacheStorage = 1443.75 ;
SolutionGap = 0.01 ;
